p cnf 12 50 
-2 8 -10 0
-12 -9 -6 0
2 10 -7 0
5 -6 -9 0
6 -9 -10 0
-12 -2 9 0
9 7 6 0
3 -2 -6 0
4 6 -11 0
11 -12 -2 0
8 11 1 0
-2 4 5 0
3 -1 2 0
-9 10 4 0
-1 9 5 0
12 -4 8 0
3 -5 -8 0
5 -9 2 0
-3 10 1 0
-1 11 -12 0
-2 11 7 0
-10 -8 1 0
11 -8 6 0
-12 -8 -7 0
12 10 -2 0
-10 -4 6 0
3 -11 7 0
-5 3 7 0
-10 8 12 0
-11 12 -7 0
-11 2 -5 0
-3 11 -9 0
6 7 4 0
-4 1 -10 0
-12 5 4 0
-2 -9 1 0
1 6 -9 0
-5 10 -3 0
-6 -2 -4 0
-3 -7 1 0
-7 9 -8 0
-9 -6 3 0
-10 4 1 0
-6 -4 9 0
10 -8 2 0
-12 -7 11 0
8 -2 5 0
2 1 -12 0
7 -6 3 0
-5 -4 -10 0
